p cnf 21 64
-2 -1 0
-3 -1 0
-3 -2 0
1 2 3 0
-5 -4 0
-6 -4 0
-6 -5 0
4 5 6 0
-8 -7 0
-9 -7 0
-9 -8 0
7 8 9 0
-11 -10 0
-12 -10 0
-12 -11 0
10 11 12 0
-14 -13 0
-15 -13 0
-15 -14 0
13 14 15 0
-17 -16 0
-18 -16 0
-18 -17 0
16 17 18 0
-20 -19 0
-21 -19 0
-21 -20 0
19 20 21 0
-1 -4 0
-2 -5 0
-3 -6 0
-4 -7 0
-5 -8 0
-6 -9 0
-7 -10 0
-8 -11 0
-9 -12 0
-10 -13 0
-11 -14 0
-12 -15 0
-13 -16 0
-14 -17 0
-15 -18 0
-16 -19 0
-17 -20 0
-18 -21 0
-1 -19 0
-2 -20 0
-3 -21 0
-1 -16 0
-2 -17 0
-3 -18 0
-1 -13 0
-2 -14 0
-3 -15 0
-7 -19 0
-8 -20 0
-9 -21 0
-10 -16 0
-11 -17 0
-12 -18 0
-4 -19 0
-5 -20 0
-6 -21 0
